4 
5  13 29 44 59 
6  14 24 32 40 47 55 
7  02 10 17 25 32 40 47 55 
8  02 10 17 25 32 40 47 55 
9  03 13 21 28 36 43 51 58 
10  06 13 21 28 36 43 51 58 
11  06 13 21 28 36 43 51 58 
12  06 13 21 28 36 43 51 58 
13  06 14 21 28 36 43 51 58 
14  06 13 21 28 36 43 51 58 
15  06 13 21 28 36 43 51 58 
16  06 13 21 28 36 43 51 58 
17  06 13 21 28 36 43 51 58 
18  06 13 21 28 36 45 53 
19  00 08 14 22 29 37 44 52 59 
20  07 14 22 29 37 44 52 59 
21  07 22 33 49 
22  04 20 34 50 
23  04 18 35 
0 
